attachment/production/6-arbitrary-recipes/production-arbitrary-recipes-diet.log
GLPSOL: GLPK LP/MIP Solver, v4.65
Parameter(s) specified in the command line:
 -m production-arbitrary-recipes.mod -d production-arbitrary-recipes-diet.dat
 --log production-arbitrary-recipes-diet.log
Reading model section from production-arbitrary-recipes.mod...
46 lines were read
Reading data section from production-arbitrary-recipes-diet.dat...
33 lines were read
Checking (line 5)...
Generating Material_Balance...
Generating Total_Costs_Calc...
Generating Total_Revenue_Calc...
Generating Profit_Calc...
Generating Profit...
Model has been successfully generated
GLPK Simplex Optimizer, v4.65
13 rows, 17 columns, 42 non-zeros
Preprocessing...
10 rows, 10 columns, 32 non-zeros
Scaling...
 A: min|aij| =  1.000e-04  max|aij| =  6.750e+02  ratio =  6.750e+06
GM: min|aij| =  2.150e-01  max|aij| =  4.651e+00  ratio =  2.163e+01
EQ: min|aij| =  4.623e-02  max|aij| =  1.000e+00  ratio =  2.163e+01
Constructing initial basis...
Size of triangular part is 10
      0: obj =  -0.000000000e+00 inf =   1.895e+02 (4)
      4: obj =  -4.105013757e+04 inf =   0.000e+00 (0)
*     5: obj =  -2.970718722e+04 inf =   0.000e+00 (0)
OPTIMAL LP SOLUTION FOUND
Time used:   0.0 secs
Memory used: 0.1 Mb (145530 bytes)
Total Costs: 29707.2
Total Revenue: 0
Profit: -29707.2
Volume of recipe EatF1: 0
Volume of recipe EatF2: 42.8571
Volume of recipe EatF3: 0
Volume of recipe EatF4: 49.2014
Volume of recipe EatF5: 28.7489
Consumption of raw F1: 0
Consumption of raw F2: 42.8571
Consumption of raw F3: 0
Consumption of raw F4: 49.2014
Consumption of raw F5: 28.7489
Production of product N1: 2042.99
Production of product N2: 180
Production of product N3: 30
Production of product N4: 0.04
Model has been successfully processed
